\ This file has been generated by DOcplex
\ ENCODING=ISO-8859-1
\Problem name: random_problem.lp

Minimize
 obj: - 402 x0 - 201 x1 + 214 x2 + 107 x3 - 262 x4 - 131 x5 + [ 424 x0^2
      + 424 x0*x1 + 80 x0*x2 + 40 x0*x3 + 576 x0*x4 + 288 x0*x5 + 106 x1^2
      + 40 x1*x2 + 20 x1*x3 + 288 x1*x4 + 144 x1*x5 + 1104 x2^2 + 1104 x2*x3
      + 480 x2*x4 + 240 x2*x5 + 276 x3^2 + 240 x3*x4 + 120 x3*x5 + 696 x4^2
      + 696 x4*x5 + 174 x5^2 ]/2
Subject To
 c0: 2 x0 + x1 + 2 x2 + x3 + 2 x4 + x5 = 3

Bounds
 0 <= x0 <= 1
 0 <= x1 <= 1
 0 <= x2 <= 1
 0 <= x3 <= 1
 0 <= x4 <= 1
 0 <= x5 <= 1

Binaries
 x0 x1 x2 x3 x4 x5
End
